109
35
1 2 3 
4 5 6 
1 7 8 9 10 11 12 13 
2 4 14 15 16 17 18 19 20 21 22 23 24 
14 25 26 27 28 29 30 31 32 
33 34 35 36 
37 38 39 40 
25 41 42 
26 33 43 44 
15 45 
5 27 46 47 48 49 50 51 
7 52 53 54 55 56 57 58 
16 28 59 60 
46 61 62 63 64 
17 43 47 65 66 67 68 69 70 
59 71 72 73 
29 37 65 74 75 76 77 78 
34 41 74 79 80 81 
18 30 45 
35 38 48 66 82 83 84 85 86 87 
19 71 82 88 89 90 
67 75 91 
20 76 92 93 
36 61 77 79 83 94 95 96 
8 31 52 60 72 84 92 97 98 
9 21 53 62 85 99 100 101 
10 39 102 
49 54 63 73 88 103 104 105 106 
11 42 55 89 97 103 107 
22 56 86 94 99 
23 50 64 68 95 100 
6 12 40 44 57 80 90 93 102 108 
51 69 91 98 104 107 109 
24 32 58 81 96 101 105 108 
3 13 70 78 87 106 109 
